33
60
12 15 23 4 56 7 2 1 2 3 57 8 2 31 64 2 4 9 52 23 11 18 5 62 1 48 75 96 32 11 10 2 88 64 97 52 36 5 44 71 2 1 36 4 9 5 27 6 4 7 51 96 2 1 12 7 8 2 1 36
2 24 31 12 5 8 96 2 1 12 7 8 2 1 36 4 9 5 27 6 4 7 51 23 6 17 80 22 13 10 8 92 31 17 25 20 23 4 2 7 9 52 23 11 18 5 62 1 48 75 96 2 1 2 3 57 8 2 31 64
